NAME: random-78-10749
TYPE: TSP
COMMENT: size=78 seed=10749
DIMENSION: 158
EDGE_WEIGHT_TYPE: EUC_2D
NODE_COORD_SECTION
+0 443 290
-0 443 290
+1 848 337
-1 721 463
+2 580 632
-2 626 384
+3 504 421
-3 885 376
+4 465 967
-4 873 842
+5 858 427
-5 531 946
+6 975 856
-6 915 106
+7 447 476
-7 758 450
+8 301 13
-8 626 501
+9 671 491
-9 827 160
+10 498 361
-10 108 905
+11 324 698
-11 289 836
+12 949 963
-12 116 252
+13 207 818
-13 265 527
+14 713 548
-14 839 150
+15 350 153
-15 998 413
+16 514 974
-16 353 767
+17 783 393
-17 48 306
+18 849 903
-18 867 862
+19 429 378
-19 630 215
+20 129 897
-20 131 449
+21 429 453
-21 934 937
+22 78 705
-22 430 203
+23 114 119
-23 857 763
+24 721 298
-24 644 1
+25 824 90
-25 90 520
+26 769 974
-26 198 668
+27 838 470
-27 98 198
+28 238 697
-28 363 205
+29 459 809
-29 778 141
+30 974 896
-30 202 901
+31 519 69
-31 230 4
+32 726 327
-32 60 209
+33 513 167
-33 374 880
+34 518 793
-34 362 266
+35 989 376
-35 996 669
+36 241 439
-36 332 987
+37 545 97
-37 439 892
+38 117 822
-38 189 719
+39 247 240
-39 238 470
+40 519 707
-40 889 682
+41 927 682
-41 932 834
+42 86 696
-42 4 313
+43 357 41
-43 495 141
+44 110 647
-44 181 885
+45 586 466
-45 63 653
+46 415 854
-46 816 675
+47 491 889
-47 801 646
+48 424 146
-48 897 670
+49 236 992
-49 437 840
+50 721 399
-50 12 31
+51 258 912
-51 187 454
+52 264 203
-52 444 669
+53 262 222
-53 917 315
+54 110 55
-54 105 490
+55 534 111
-55 195 324
+56 287 826
-56 754 762
+57 629 205
-57 499 238
+58 44 104
-58 15 763
+59 391 517
-59 286 777
+60 995 73
-60 220 504
+61 812 367
-61 191 695
+62 782 544
-62 274 39
+63 328 507
-63 389 871
+64 655 714
-64 437 956
+65 691 646
-65 389 754
+66 657 778
-66 640 875
+67 476 392
-67 35 530
+68 870 973
-68 756 862
+69 902 321
-69 923 646
+70 676 301
-70 479 457
+71 415 652
-71 750 172
+72 502 604
-72 300 956
+73 704 459
-73 833 119
+74 351 344
-74 238 150
+75 196 605
-75 58 358
+76 518 346
-76 450 843
+77 250 88
-77 283 832
+78 602 384
-78 1 502
PRECEDENCE_SECTION
+0 -0
+1 -1
+2 -2
+3 -3
+4 -4
+5 -5
+6 -6
+7 -7
+8 -8
+9 -9
+10 -10
+11 -11
+12 -12
+13 -13
+14 -14
+15 -15
+16 -16
+17 -17
+18 -18
+19 -19
+20 -20
+21 -21
+22 -22
+23 -23
+24 -24
+25 -25
+26 -26
+27 -27
+28 -28
+29 -29
+30 -30
+31 -31
+32 -32
+33 -33
+34 -34
+35 -35
+36 -36
+37 -37
+38 -38
+39 -39
+40 -40
+41 -41
+42 -42
+43 -43
+44 -44
+45 -45
+46 -46
+47 -47
+48 -48
+49 -49
+50 -50
+51 -51
+52 -52
+53 -53
+54 -54
+55 -55
+56 -56
+57 -57
+58 -58
+59 -59
+60 -60
+61 -61
+62 -62
+63 -63
+64 -64
+65 -65
+66 -66
+67 -67
+68 -68
+69 -69
+70 -70
+71 -71
+72 -72
+73 -73
+74 -74
+75 -75
+76 -76
+77 -77
+78 -78
EOF
